p cnf 103 17
c ind 69 70 71 72 73 74 78 79 80 81 0
c ind 82 83 84 85 86 87 88 89 90 91 0
c ind 92 93 94 95 96 97 98 99 100 101 0
c ind 68 75 76 77 1 0
c ret 46 47 48 49 50 51 52 53 54 55 0
c ret 56 57 58 59 10 60 61 62 63 64 0
c ret 65 66 67 11 12 13 5 14 15 16 0
c ret 17 18 6 19 20 21 22 23 24 7 0
c ret 25 26 27 28 29 8 30 31 32 33 0
c ret 34 35 36 37 38 39 40 41 42 9 0
c ret 43 44 45 0
2 -3 4 -39 0
-2 39 0
-2 3 0
-2 -4 0
3 -68 -75 -76 -77 0
-3 77 0
-3 68 0
-3 76 0
-3 75 0
4 -5 -12 -13 -14 0
-4 14 0
-4 5 0
-4 13 0
-4 12 0
1 2 0
-1 -2 0
102 0

